words_hard_train/5703.qaiger
aag 58 15 0 1 43
2
4
12
14
20
22
26
28
32
38
56
64
70
82
102
117
6 2 4
8 3 5
10 7 9
16 12 15
18 11 17
24 21 23
30 26 28
34 30 32
36 24 35
40 37 38
42 19 40
44 13 14
46 11 40
48 45 47
50 43 49
52 48 19
54 51 53
58 56 27
60 57 26
62 59 61
66 64 20
68 62 67
72 70 33
74 73 29
76 65 21
78 74 77
80 68 78
84 65 82
86 64 83
88 85 87
90 89 22
92 88 23
94 91 93
96 80 95
98 36 39
100 99 41
104 101 102
106 96 105
108 71 32
110 100 103
112 109 111
114 106 112
116 54 114
i0 2 y2[7]
i1 1 x2[7]
i2 2 y2[6]
i3 1 x2[6]
i4 1 x2[3]
i5 1 x2[4]
i6 1 x2[2]
i7 1 x2[0]
i8 1 x2[1]
i9 1 x2[5]
i10 2 y2[2]
i11 2 y2[3]
i12 2 y2[1]
i13 2 y2[4]
i14 2 y2[5]
o0 bool[0]
c
simplified
  !=
    subtract
      1 x2
      invert
        24
    or
      2 y2
      1
