words_hard_train/5703.qaiger.qdimacs
p cnf 58 130
a 2 7 10 11 13 14 16 19 0
e 1 3 4 5 6 8 9 12 15 17 18 20 21 22 23 24 25 26 27 28 29 30 31 32 33 34 35 36 37 38 39 40 41 42 43 44 45 46 47 48 49 50 51 52 53 54 55 56 57 58 0
-1 -2 3 0
1 -3 0
2 -3 0
1 2 4 0
-1 -4 0
-2 -4 0
3 4 5 0
-3 -5 0
-4 -5 0
-6 7 8 0
6 -8 0
-7 -8 0
5 8 9 0
-5 -9 0
-8 -9 0
10 11 12 0
-10 -12 0
-11 -12 0
-13 -14 15 0
13 -15 0
14 -15 0
-15 -16 17 0
15 -17 0
16 -17 0
-12 17 18 0
12 -18 0
-17 -18 0
18 -19 20 0
-18 -20 0
19 -20 0
9 -20 21 0
-9 -21 0
20 -21 0
6 -7 22 0
-6 -22 0
7 -22 0
5 -20 23 0
-5 -23 0
20 -23 0
22 23 24 0
-22 -24 0
-23 -24 0
21 24 25 0
-21 -25 0
-24 -25 0
-24 9 26 0
24 -26 0
-9 -26 0
25 26 27 0
-25 -27 0
-26 -27 0
-28 13 29 0
28 -29 0
-13 -29 0
28 -13 30 0
-28 -30 0
13 -30 0
29 30 31 0
-29 -31 0
-30 -31 0
-32 -10 33 0
32 -33 0
10 -33 0
-31 33 34 0
31 -34 0
-33 -34 0
-35 16 36 0
35 -36 0
-16 -36 0
36 14 37 0
-36 -37 0
-14 -37 0
32 10 38 0
-32 -38 0
-10 -38 0
-37 38 39 0
37 -39 0
-38 -39 0
-34 -39 40 0
34 -40 0
39 -40 0
32 -41 42 0
-32 -42 0
41 -42 0
-32 41 43 0
32 -43 0
-41 -43 0
42 43 44 0
-42 -44 0
-43 -44 0
44 -11 45 0
-44 -45 0
11 -45 0
-44 11 46 0
44 -46 0
-11 -46 0
45 46 47 0
-45 -47 0
-46 -47 0
-40 47 48 0
40 -48 0
-47 -48 0
-18 19 49 0
18 -49 0
-19 -49 0
49 20 50 0
-49 -50 0
-20 -50 0
50 -51 52 0
-50 -52 0
51 -52 0
-48 52 53 0
48 -53 0
-52 -53 0
35 -16 54 0
-35 -54 0
16 -54 0
-50 51 55 0
50 -55 0
-51 -55 0
54 55 56 0
-54 -56 0
-55 -56 0
-53 -56 57 0
53 -57 0
56 -57 0
-27 -57 58 0
27 -58 0
57 -58 0
-58 0
